0 7
0 27
0 29
1 10
1 12
3 8
3 25
4 11
4 15
4 16
4 24
5 11
5 26
6 9
6 17
7 10
7 13
7 18
8 27
9 10
9 19
10 23
10 31
11 17
11 28
12 16
12 21
12 27
13 14
13 22
13 25
14 28
15 22
15 24
15 26
16 21
16 29
17 24
17 26
18 20
18 21
18 27
20 27
21 25
21 26
21 30
28 31
